words_hard_train/6027.qaiger
aag 68 15 0 1 53
2
4
8
12
16
20
24
28
56
64
70
82
88
92
120
136
6 2 4
10 6 8
14 10 12
18 14 16
22 18 20
26 22 24
30 27 28
32 15 16
34 7 4
36 7 8
38 35 37
40 11 12
42 38 41
44 33 42
46 19 20
48 44 47
50 23 24
52 48 51
54 30 52
58 53 57
60 49 50
62 58 61
66 46 64
68 67 49
72 33 71
74 73 45
76 47 65
78 74 77
80 32 70
84 40 82
86 81 85
90 34 88
94 37 93
96 90 95
98 36 92
100 97 99
102 41 83
104 101 103
106 104 43
108 86 107
110 78 109
112 68 111
114 50 56
116 112 115
118 63 117
122 119 120
124 54 123
126 118 121
128 127 55
130 125 129
132 31 53
134 132 123
136 131 135
i0 2 y2[0]
i1 2 y2[1]
i2 2 y2[2]
i3 2 y2[3]
i4 2 y2[4]
i5 2 y2[5]
i6 2 y2[6]
i7 2 y2[7]
i8 1 x2[6]
i9 1 x2[5]
i10 1 x2[4]
i11 1 x2[3]
i12 1 x2[1]
i13 1 x2[2]
i14 1 x2[7]
o0 bv[0]
c
simplified
  <=
    and
      add
        2 y2
        1
      2 y2
    invert
      1 x2
