words_hard_train/6027.qaiger.qdimacs
p cnf 68 160
a 32 35 41 44 46 60 28 0
e 1 2 3 4 5 6 7 8 9 10 11 12 13 14 15 16 17 18 19 20 21 22 23 24 25 26 27 29 30 31 33 34 36 37 38 39 40 42 43 45 47 48 49 50 51 52 53 54 55 56 57 58 59 61 62 63 64 65 66 67 68 0
-1 -2 3 0
1 -3 0
2 -3 0
-3 -4 5 0
3 -5 0
4 -5 0
-5 -6 7 0
5 -7 0
6 -7 0
-7 -8 9 0
7 -9 0
8 -9 0
-9 -10 11 0
9 -11 0
10 -11 0
-11 -12 13 0
11 -13 0
12 -13 0
13 -14 15 0
-13 -15 0
14 -15 0
7 -8 16 0
-7 -16 0
8 -16 0
3 -2 17 0
-3 -17 0
2 -17 0
3 -4 18 0
-3 -18 0
4 -18 0
17 18 19 0
-17 -19 0
-18 -19 0
5 -6 20 0
-5 -20 0
6 -20 0
-19 20 21 0
19 -21 0
-20 -21 0
16 -21 22 0
-16 -22 0
21 -22 0
9 -10 23 0
-9 -23 0
10 -23 0
-22 23 24 0
22 -24 0
-23 -24 0
11 -12 25 0
-11 -25 0
12 -25 0
-24 25 26 0
24 -26 0
-25 -26 0
-15 -26 27 0
15 -27 0
26 -27 0
26 28 29 0
-26 -29 0
-28 -29 0
24 -25 30 0
-24 -30 0
25 -30 0
-29 30 31 0
29 -31 0
-30 -31 0
-23 -32 33 0
23 -33 0
32 -33 0
33 24 34 0
-33 -34 0
-24 -34 0
16 35 36 0
-16 -36 0
-35 -36 0
36 22 37 0
-36 -37 0
-22 -37 0
23 32 38 0
-23 -38 0
-32 -38 0
-37 38 39 0
37 -39 0
-38 -39 0
-16 -35 40 0
16 -40 0
35 -40 0
-20 -41 42 0
20 -42 0
41 -42 0
40 42 43 0
-40 -43 0
-42 -43 0
-17 -44 45 0
17 -45 0
44 -45 0
18 46 47 0
-18 -47 0
-46 -47 0
-45 47 48 0
45 -48 0
-47 -48 0
-18 -46 49 0
18 -49 0
46 -49 0
48 49 50 0
-48 -50 0
-49 -50 0
20 41 51 0
-20 -51 0
-41 -51 0
50 51 52 0
-50 -52 0
-51 -52 0
-52 21 53 0
52 -53 0
-21 -53 0
-43 53 54 0
43 -54 0
-53 -54 0
-39 54 55 0
39 -55 0
-54 -55 0
-34 55 56 0
34 -56 0
-55 -56 0
-25 -28 57 0
25 -57 0
28 -57 0
-56 57 58 0
56 -58 0
-57 -58 0
31 58 59 0
-31 -59 0
-58 -59 0
59 -60 61 0
-59 -61 0
60 -61 0
-27 61 62 0
27 -62 0
-61 -62 0
-59 60 63 0
59 -63 0
-60 -63 0
63 27 64 0
-63 -64 0
-27 -64 0
62 64 65 0
-62 -65 0
-64 -65 0
15 26 66 0
-15 -66 0
-26 -66 0
-66 61 67 0
66 -67 0
-61 -67 0
65 67 68 0
-65 -68 0
-67 -68 0
68 0
